NAME          
ROWS
 N  OBJ
 L  c1
 L  c2
 L  c3
COLUMNS
    MARKER    'MARKER'                 'INTORG'
    x[1]      c1        490
    x[1]      c2        192
    x[1]      c3        862
    x[1]      OBJ       -36
    x[2]      c1        446
    x[2]      c2        261
    x[2]      c3        730
    x[2]      OBJ       -503
    x[3]      c1        986
    x[3]      c2        742
    x[3]      c3        188
    x[3]      OBJ       -296
    x[4]      c1        910
    x[4]      c2        435
    x[4]      c3        722
    x[4]      OBJ       -10
    x[5]      c1        861
    x[5]      c2        808
    x[5]      c3        424
    x[5]      OBJ       -856
    x[6]      c1        830
    x[6]      c2        28
    x[6]      c3        505
    x[6]      OBJ       -356
    x[7]      c1        464
    x[7]      c2        638
    x[7]      c3        568
    x[7]      OBJ       -393
    x[8]      c1        124
    x[8]      c2        592
    x[8]      c3        147
    x[8]      OBJ       -92
    x[9]      c1        921
    x[9]      c2        958
    x[9]      c3        38
    x[9]      OBJ       -310
    x[10]     c1        959
    x[10]     c2        422
    x[10]     c3        262
    x[10]     OBJ       -79
    x[11]     c1        389
    x[11]     c2        492
    x[11]     c3        766
    x[11]     OBJ       -667
    x[12]     c1        639
    x[12]     c2        305
    x[12]     c3        545
    x[12]     OBJ       -750
    x[13]     c1        471
    x[13]     c2        21
    x[13]     c3        662
    x[13]     OBJ       -232
    x[14]     c1        634
    x[14]     c2        980
    x[14]     c3        166
    x[14]     OBJ       -778
    x[15]     c1        229
    x[15]     c2        2
    x[15]     c3        518
    x[15]     OBJ       -765
    x[16]     c1        111
    x[16]     c2        898
    x[16]     c3        517
    x[16]     OBJ       -126
    x[17]     c1        31
    x[17]     c2        861
    x[17]     c3        450
    x[17]     OBJ       -319
    x[18]     c1        224
    x[18]     c2        694
    x[18]     c3        851
    x[18]     OBJ       -679
    x[19]     c1        244
    x[19]     c2        520
    x[19]     c3        649
    x[19]     OBJ       -289
    x[20]     c1        183
    x[20]     c2        733
    x[20]     c3        662
    x[20]     OBJ       -379
    x[21]     c1        128
    x[21]     c2        166
    x[21]     c3        845
    x[21]     OBJ       -22
    x[22]     c1        986
    x[22]     c2        15
    x[22]     c3        814
    x[22]     OBJ       -463
    x[23]     c1        412
    x[23]     c2        410
    x[23]     c3        83
    x[23]     OBJ       -935
    x[24]     c1        327
    x[24]     c2        514
    x[24]     c3        711
    x[24]     OBJ       -971
    x[25]     c1        959
    x[25]     c2        233
    x[25]     c3        553
    x[25]     OBJ       -181
RHS
    rhs       c1        6479
    rhs       c2        5960
    rhs       c3        6619
RANGES
BOUNDS
 LO bounds    x[1]      0
 PL bounds    x[1]
 LO bounds    x[2]      0
 PL bounds    x[2]
 LO bounds    x[3]      0
 PL bounds    x[3]
 LO bounds    x[4]      0
 PL bounds    x[4]
 LO bounds    x[5]      0
 PL bounds    x[5]
 LO bounds    x[6]      0
 PL bounds    x[6]
 LO bounds    x[7]      0
 PL bounds    x[7]
 LO bounds    x[8]      0
 PL bounds    x[8]
 LO bounds    x[9]      0
 PL bounds    x[9]
 LO bounds    x[10]     0
 PL bounds    x[10]
 LO bounds    x[11]     0
 PL bounds    x[11]
 LO bounds    x[12]     0
 PL bounds    x[12]
 LO bounds    x[13]     0
 PL bounds    x[13]
 LO bounds    x[14]     0
 PL bounds    x[14]
 LO bounds    x[15]     0
 PL bounds    x[15]
 LO bounds    x[16]     0
 PL bounds    x[16]
 LO bounds    x[17]     0
 PL bounds    x[17]
 LO bounds    x[18]     0
 PL bounds    x[18]
 LO bounds    x[19]     0
 PL bounds    x[19]
 LO bounds    x[20]     0
 PL bounds    x[20]
 LO bounds    x[21]     0
 PL bounds    x[21]
 LO bounds    x[22]     0
 PL bounds    x[22]
 LO bounds    x[23]     0
 PL bounds    x[23]
 LO bounds    x[24]     0
 PL bounds    x[24]
 LO bounds    x[25]     0
 PL bounds    x[25]
ENDATA
